
50
12705

783 683
192 92
718 618
942 842
935 835
616 516
732 632
470 370
629 529
208 108
783 683
701 601
382 282
479 379
837 737
544 444
1060 960
1072 972
939 839
192 92
176 76
389 289
462 362
805 705
927 827
663 563
740 640
674 574
135 35
627 527
314 214
517 417
109 9
756 656
1011 911
169 69
681 581
124 24
452 352
260 160
961 861
829 729
997 897
318 218
819 719
800 700
611 511
1017 917
725 625
383 283
